Rodando pra 1h

Optimize a model with 490039 rows, 733980 columns and 8548744 nonzeros
Coefficient statistics:
  Matrix range    [1e+00, 1e+04]
  Objective range [1e+00, 1e+00]
  Bounds range    [1e+00, 1e+04]
  RHS range       [1e+00, 1e+04]
Presolve removed 2 rows and 2 columns (presolve time = 5s) ...
Presolve removed 2 rows and 2 columns (presolve time = 13s) ...
Presolve removed 4 rows and 4 columns (presolve time = 18s) ...
Presolve removed 4 rows and 4 columns (presolve time = 24s) ...
Presolve removed 4 rows and 4 columns (presolve time = 26s) ...
Presolve removed 4 rows and 4 columns (presolve time = 31s) ...
Presolve removed 4 rows and 4 columns (presolve time = 36s) ...
Presolve removed 4 rows and 4 columns (presolve time = 42s) ...
Presolve removed 4 rows and 4 columns (presolve time = 47s) ...
Presolve removed 4 rows and 4 columns (presolve time = 51s) ...
Presolve removed 4 rows and 4 columns (presolve time = 56s) ...
Presolve removed 4 rows and 4 columns (presolve time = 61s) ...
Presolve removed 4 rows and 4 columns (presolve time = 65s) ...
Presolve removed 4 rows and 4 columns (presolve time = 74s) ...
Presolve removed 4 rows and 4 columns (presolve time = 85s) ...
Presolve removed 4 rows and 4 columns
Presolve time: 84.76s
Presolved: 490035 rows, 733976 columns, 8548726 nonzeros
Variable types: 489300 continuous, 244676 integer (244675 binary)
Optimize a model with 490035 rows, 733976 columns and 8548726 nonzeros
Coefficient statistics:
  Matrix range    [1e+00, 1e+04]
  Objective range [1e+00, 1e+00]
  Bounds range    [1e+00, 1e+04]
  RHS range       [1e+00, 2e+04]
Presolve removed 0 rows and 0 columns (presolve time = 6s) ...
Presolve removed 0 rows and 0 columns (presolve time = 10s) ...
Presolved: 490035 rows, 733976 columns, 8548726 nonzeros


Root simplex log...

Iteration    Objective       Primal Inf.    Dual Inf.      Time
       0    0.0000000e+00   2.104683e+03   0.000000e+00    127s
    1417    0.0000000e+00   0.000000e+00   0.000000e+00    128s

Root relaxation: objective 0.000000e+00, 1417 iterations, 15.33 seconds

    Nodes    |    Current Node    |     Objective Bounds      |     Work
 Expl Unexpl |  Obj  Depth IntInf | Incumbent    BestBd   Gap | It/Node Time

     0     0    0.00000    0  711          -    0.00000      -     - 3600s

Explored 0 nodes (361086 simplex iterations) in 3600.50 seconds
Thread count was 1 (of 4 available processors)

Time limit reached
Best objective -, best bound 0.000000000000e+00, gap -
Tempo: 3581.45 segundos

Error code = 10004
Var::get
